
  32    4
  10   10   10   10

   0   0   0   0   0   2 2 4 
   2   1   1   1   0   2 5 3 
   2   0   3   2   1   2 18 6 
   7   3   5   2   0   1 5 
   9   3   0   3   2   2 18 7 
   8   4   0   4   3   1 7 
   8   5   0   8   6   2 9 8 
   4   5   3   0   2   2 12 10 
   3   6   3   3   0   1 10 
   3   5   4   4   0   2 13 11 
   7   3   0   4   6   3 20 17 14 
   7   6   5   0   2   1 14 
   3   0   7   3   6   4 31 22 20 17 
   8   2   0   3   1   2 19 15 
   8   6   3   0   3   1 16 
   5   0   3   6   4   2 31 22 
   8   4   3   0   7   1 19 
   4   2   7   0   4   1 19 
   1   0   4   1   4   1 21 
   2   2   2   6   0   1 21 
   5   3   5   4   0   1 23 
   8   7   0   4   5   1 23 
   9   0   5   5   5   1 24 
   6   0   6   5   4   1 25 
  10   2   0   4   5   1 26 
   4   3   0   5   5   1 27 
   9   3   4   4   0   2 30 28 
  10   4   2   0   4   1 29 
   7   7   0   6   5   1 32
   5   4   5   0   2   1 32
   4   6   0   5   6   1 32
   0   0   0   0   0   0 
